&DOS
    prefix='{{prefix}}',
    outdir='{{outdir}}',
    fildos='{{fildos}}',
    emin={{emin | default(-9.0)}},
    emax={{emax | default(16.0)}}
/
